coords = array2d(1..59, 1..2, [848, 783, 711, 441, 556, 324, 167, 369, 918, 96,
    807, 829, 831, 995, 704, 553, 408, 478, 996, 161, 204, 491, 461,
    704, 278, 886, 625, 707, 424, 748, 351, 557, 971, 61, 458, 429,
    307, 399, 273, 756, 781, 9, 47, 767, 221, 901, 55, 504, 210, 31,
    304, 771, 392, 440, 94, 168, 706, 707, 586, 32, 458, 891, 435,
    718, 109, 994, 24, 423, 920, 680, 803, 466, 472, 90, 946, 435,
    214, 542, 63, 633, 454, 858, 447, 108, 292, 351, 162, 919, 843,
    312, 346, 62, 419, 931, 276, 979, 193, 610, 346, 22, 698, 440,
    658, 13, 570, 660, 674, 721, 454, 360, 414, 893, 770, 616, 993,
    13, 274, 545]);

n = 59;

